waescher 
ins 0
 10000 141
2472
2371
2371
2027
2026
1962
1939
1939
1939
1864
1864
1864
1840
1743
1681
1681
1639
1554
1542
1298
1280
1280
1280
1260
1246
1246
1246
1246
1246
1230
1158
1146
1146
1146
1146
1111
1111
1111
1111
1111
1111
869
869
869
869
826
826
826
826
826
826
826
826
826
826
826
784
784
784
784
784
784
784
781
781
738
668
668
668
668
668
668
668
668
668
668
648
648
648
648
648
641
641
641
641
588
588
502
502
502
499
499
499
465
465
465
465
465
465
392
392
392
392
392
390
390
390
293
293
293
231
231
231
199
199
199
118
118
118
118
118
118
118
118
118
98
98
98
98
98
88
88
88
88
88
67
67
32
32
32
32
